10J3M/DAT/10J3MNTL-10.dat
10 3
23.7217 23.7217
17.8499 17.8499
30.6349 30.6349
26.0831 26.0831
26.7018 26.7018
22.5993 22.5993
20.6238 20.6238
28.1948 28.1948
25.5643 25.5643
29.6425 29.6425
62.904