10J3M/SOL/10J3MNTL-10.sol
solution status: optimal solution found
objective value:                              58.3231
x#1#1                                               1 	(obj:0)
x#2#2                                               1 	(obj:0)
x#3#1                                               1 	(obj:0)
x#4#3                                               1 	(obj:0)
x#6#3                               0.320244229378148 	(obj:0)
x#7#1                               0.249437584029605 	(obj:0)
x#7#2                               0.750562415970395 	(obj:0)
x#8#2                                               1 	(obj:0)
x#9#1                               0.542921359476475 	(obj:0)
x#10#3                                              1 	(obj:0)
z                                             58.3231 	(obj:1)
